NAME : Unnamed.660.tour
COMMENT : Length = 660
COMMENT : Found by LKH [Keld Helsgaun] Tue Jan 13 16:45:21 2015
TYPE : TOUR
DIMENSION : 83
TOUR_SECTION
1
9
8
13
18
25
16
7
3
6
26
23
34
47
37
44
50
56
64
60
55
61
49
66
79
72
74
71
73
69
67
68
80
77
54
36
43
39
27
22
41
24
58
57
81
75
63
35
33
82
78
70
76
65
62
40
30
48
38
32
46
28
21
29
51
53
59
52
31
42
45
20
19
17
12
10
14
15
11
4
5
2
83
-1
EOF
